

[NpcPos]	Flags	Index	PosX	PosY	Type	IsRangeCheck
0	0	1	36	41	3	1
1	0	2	37	36	2	1
2	0	3	37	13	5	1
3	0	4	18	13	1	1
4	0	5	28	40	1	1
5	0	6	12	43	4	1
6	0	7	43	27	1	1
7	0	8	23	49	7	0
8	0	9	17	49	7	0
9	0	14	219	184	6	1
10	1	15	19	113	6	1
11	1	16	65	242	6	1
12	1	17	128	232	6	1
13	1	18	240	116	6	1
14	1	19	87	163	6	1
15	1	20	52	172	6	1
16	1	21	83	139	6	1
17	1	22	166	65	6	1
18	1	23	185	28	6	1
19	1	24	73	164	6	1
20	0	25	55	159	7	0
21	0	26	145	34	7	0
22	0	27	15	111	7	0
23	0	28	22	72	7	0
24	0	29	160	195	7	0
25	0	30	59	68	7	0
26	0	32	23	16	1	1
27	0	33	28	16	6	1
28	0	34	17	16	1	1
29	0	35	14	43	1	1
30	0	39	33	30	1	1
31	0	46	37	26	1	1
32	1	49	82	22	6	1
33	0	50	0	0	1	0

[WarpLst]	NpcsIdx	NSetIdx	TargetIdx	LV	Fee	Type
0	14	0	110	0	0	1
1	14	1	116	0	0	1
2	14	2	118	0	0	1
3	14	3	120	0	0	1
4	14	4	122	0	0	1
5	15	0	44	3	0	0
6	16	0	35	0	0	1
7	16	1	47	0	0	1
8	16	2	106	0	0	1
9	16	3	148	1	0	2
10	16	4	175	1	0	2
11	17	0	57	0	0	1
12	17	1	79	0	0	1
13	17	2	117	0	0	1
14	17	3	149	1	0	2
15	17	4	163	1	0	2
16	17	5	187	1	0	2
17	17	6	188	1	0	2
18	17	7	189	1	0	2
19	17	8	219	1	0	2
20	17	9	220	1	0	2
21	17	10	221	1	0	2
22	17	11	222	1	0	2
23	17	12	246	1	0	2
24	17	13	247	1	0	2
25	18	0	69	0	0	1
26	18	1	78	0	0	1
27	18	2	80	0	0	1
28	18	3	168	1	0	2
29	18	4	176	1	0	2
30	18	5	190	1	0	2
31	19	0	146	0	0	1
32	21	0	34	0	0	1
33	21	1	147	0	0	1
34	22	0	44	0	0	1
35	22	1	68	0	0	1
36	22	2	81	0	0	1
37	22	3	137	0	0	1
38	23	0	70	0	0	1
39	23	1	77	0	0	1
40	24	0	60	0	0	1
41	49	0	297	0	0	2
42	49	1	298	0	0	2
43	49	2	299	0	0	2
44	49	3	300	0	0	2
45	49	4	301	0	0	2

[SkillLst]	NSetIdx	NpcsIdx	SkillIdx	SkillLv
0	0	2	1	1
1	1	2	2	1
2	2	2	209	1
3	3	2	3	1
4	4	2	5	1
5	5	2	10	1
6	6	2	11	1
7	7	2	203	1
8	8	2	208	1
9	9	2	12	1
10	10	2	13	1
11	11	2	22	1
12	12	2	200	1
13	13	2	23	1
14	14	2	25	1
15	15	2	6	1
16	16	2	8	1
17	17	2	68	1
18	18	2	30	1
19	19	2	32	1
20	20	2	204	1
21	21	2	14	1
22	22	2	15	1
23	23	2	26	1
24	24	2	28	1
25	25	2	38	1
26	26	2	201	1
27	27	2	39	1
28	28	2	216	1
29	29	2	41	1
30	30	2	205	1
31	31	2	43	1
32	32	2	45	1
33	33	2	51	1
34	34	2	206	1
35	35	2	53	1
36	36	2	34	1
37	37	2	36	1
38	38	2	202	1
39	39	2	210	1
40	40	2	55	1
41	41	2	219	1
42	42	2	217	1
43	43	2	218	1
44	44	2	57	1
45	45	2	220	1
46	46	2	221	1
47	47	2	100	1
48	48	2	157	1
49	49	2	230	1
50	50	2	424	1
51	51	2	101	1
52	52	2	102	1
53	53	2	103	1
54	54	2	104	1
55	55	2	105	1
56	56	2	106	1
57	57	2	425	1
58	58	2	426	1
59	59	2	427	1
60	60	2	428	1
61	61	2	429	1
62	62	2	430	1
63	63	2	107	1
64	64	2	248	1
65	65	2	431	1
66	66	2	108	1
67	67	2	109	1
68	68	2	110	1
69	69	2	111	1
70	70	2	112	1
71	71	2	113	1
72	72	2	432	1
73	73	2	433	1
74	74	2	434	1
75	75	2	435	1
76	76	2	436	1
77	77	2	437	1
78	78	2	114	1
79	79	2	158	1
80	80	2	438	1
81	81	2	115	1
82	82	2	116	1
83	83	2	117	1
84	84	2	118	1
85	85	2	119	1
86	86	2	120	1
87	87	2	439	1
88	88	2	440	1
89	89	2	441	1
90	90	2	442	1
91	91	2	443	1
92	92	2	444	1
93	93	2	121	1
94	94	2	249	1
95	95	2	445	1
96	96	2	122	1
97	97	2	123	1
98	98	2	124	1
99	99	2	125	1
100	100	2	126	1
101	101	2	127	1
102	102	2	446	1
103	103	2	447	1
104	104	2	448	1
105	105	2	449	1
106	106	2	450	1
107	107	2	451	1
108	108	2	159	1
109	109	2	223	1
110	110	2	251	1
111	111	2	224	1
112	112	2	225	1
113	113	2	250	1
114	114	2	300	1
115	115	2	301	1
116	116	2	300	2
117	117	2	301	2
118	118	2	305	1
119	119	2	306	1
120	120	2	300	3
121	121	2	301	3
122	122	2	302	1
123	123	2	303	1
124	124	2	304	1
125	125	2	305	2
126	126	2	306	2
127	127	2	300	4
128	128	2	301	4
129	129	2	302	2
130	130	2	303	2
131	131	2	304	2
132	132	2	305	3
133	133	2	306	3
134	134	2	300	5
135	135	2	301	5
136	136	2	302	3
137	137	2	303	3
138	138	2	304	3
139	139	2	305	4
140	140	2	306	4
141	141	2	300	6
142	142	2	301	6
143	143	2	302	4
144	144	2	303	4
145	145	2	304	4
146	146	2	305	5
147	147	2	306	5
148	148	2	300	7
149	149	2	301	7
150	150	2	302	5
151	151	2	303	5
152	152	2	304	5
153	153	2	305	6
154	154	2	306	6
155	155	2	300	8
156	156	2	301	8
157	157	2	302	6
158	158	2	303	6
159	159	2	304	6
160	160	2	305	7
161	161	2	306	7
162	162	2	300	9
163	163	2	301	9
164	164	2	302	7
165	165	2	303	7
166	166	2	304	7
167	167	2	305	8
168	168	2	306	8
169	169	2	300	10
170	170	2	301	10
171	171	2	302	8
172	172	2	303	8
173	173	2	304	8
174	174	2	305	9
175	175	2	306	9
176	176	2	310	1
177	177	2	311	1
178	178	2	312	1
179	179	2	313	1
180	180	2	314	1
181	181	2	310	2
182	182	2	311	2
183	183	2	312	2
184	184	2	313	2
185	185	2	314	2
186	186	2	310	3
187	187	2	311	3
188	188	2	312	3
189	189	2	313	3
190	190	2	314	3

[ShopLst]	NpcsIdx	NSetIdx	ItemKind	ItemOpt	ReputationClass	DurationIdx	Price
0	4	0	91	0	-19	0	600
1	4	2	92	0	-19	0	1800
2	4	4	93	0	-19	0	5400
3	4	6	94	0	-19	0	16200
4	4	32	76	0	-19	0	600
5	4	34	77	0	-19	0	1800
6	4	36	78	0	-19	0	5400
7	4	38	79	0	-19	0	16200
8	4	64	61	0	-19	0	400
9	4	65	62	0	-19	0	1200
10	4	66	63	0	-19	0	3600
11	4	67	64	0	-19	0	10800
12	4	68	46	0	-19	0	400
13	4	69	47	0	-19	0	1200
14	4	70	48	0	-19	0	3600
15	4	71	49	0	-19	0	10800
16	4	96	95	0	-19	0	24300
17	4	98	80	0	-19	0	24300
18	4	100	65	0	-19	0	16200
19	4	101	50	0	-19	0	16200
20	5	0	241	0	-19	0	400
21	5	2	242	0	-19	0	1200
22	5	4	243	0	-19	0	3600
23	5	6	244	0	-19	0	10800
24	5	16	106	0	-19	0	600
25	5	18	107	0	-19	0	1800
26	5	20	108	0	-19	0	5400
27	5	22	109	0	-19	0	16200
28	5	48	196	0	-19	0	400
29	5	50	197	0	-19	0	1200
30	5	52	198	0	-19	0	3600
31	5	54	199	0	-19	0	10800
32	5	64	151	0	-19	0	400
33	5	66	152	0	-19	0	1200
34	5	68	153	0	-19	0	3600
35	5	70	154	0	-19	0	10800
36	5	80	245	0	-19	0	16200
37	5	82	110	0	-19	0	24300
38	5	84	200	0	-19	0	16200
39	5	86	155	0	-19	0	16200
40	6	0	16	0	-19	0	400
41	6	2	31	0	-19	0	400
42	6	16	17	0	-19	0	1200
43	6	18	32	0	-19	0	1200
44	6	32	18	0	-19	0	3600
45	6	34	33	0	-19	0	3600
46	6	48	19	0	-19	0	10800
47	6	50	34	0	-19	0	10800
48	6	64	20	0	-19	0	16200
49	6	66	35	0	-19	0	16200
50	6	4	350	0	-19	0	800
51	6	6	285	0	-19	0	800
52	6	7	309	0	-19	0	800
53	6	12	354	0	-19	0	800
54	6	14	293	0	-19	0	800
55	6	15	312	0	-19	0	800
56	6	20	358	0	-19	0	800
57	6	22	301	0	-19	0	4000
58	6	80	1790	0	-19	0	400
59	6	81	1791	0	-19	0	1200
60	6	82	1792	0	-19	0	3600
61	6	83	1793	0	-19	0	10800
62	6	84	1794	0	-19	0	16200
63	6	112	626	1	-19	0	25000000
64	6	114	626	2	-19	0	25000000
65	6	116	626	3	-19	0	25000000
66	6	118	626	4	-19	0	25000000
67	6	120	626	5	-19	0	25000000
68	6	122	626	6	-19	0	25000000
69	6	124	626	7	-19	0	25000000
70	6	126	626	8	-19	0	25000000
71	7	0	3	50	-19	0	2000
72	7	1	3	100	-19	0	4000
73	7	2	3	250	-19	0	10000
74	7	3	3	500	-19	0	20000
75	7	8	4	50	-19	0	10000
76	7	9	4	100	-19	0	20000
77	7	10	4	250	-19	0	50000
78	7	11	4	500	-19	0	100000
79	7	16	5	50	-19	0	50000
80	7	17	5	100	-19	0	100000
81	7	18	5	250	-19	0	250000
82	7	19	5	500	-19	0	500000
83	7	24	1757	50	-19	0	70000
84	7	25	1757	100	-19	0	140000
85	7	26	1757	250	-19	0	350000
86	7	27	1757	500	-19	0	700000
87	7	32	6	50	-19	0	2000
88	7	33	6	100	-19	0	4000
89	7	34	6	250	-19	0	10000
90	7	35	6	500	-19	0	20000
91	7	40	7	50	-19	0	10000
92	7	41	7	100	-19	0	20000
93	7	42	7	250	-19	0	50000
94	7	43	7	500	-19	0	100000
95	7	48	8	50	-19	0	50000
96	7	49	8	100	-19	0	100000
97	7	50	8	250	-19	0	250000
98	7	51	8	500	-19	0	500000
99	7	56	1758	50	-19	0	70000
100	7	57	1758	100	-19	0	140000
101	7	58	1758	250	-19	0	350000
102	7	59	1758	500	-19	0	700000
103	7	64	12	50	-19	0	10000
104	7	65	12	100	-19	0	20000
105	7	66	12	250	-19	0	50000
106	7	67	12	500	-19	0	100000
107	7	80	626	9	-19	0	25000000
108	7	82	626	10	-19	0	25000000
109	7	84	626	11	-19	0	25000000
110	7	86	626	12	-19	0	25000000
111	7	88	626	13	-19	0	25000000
112	7	90	626	14	-19	0	25000000
113	7	92	626	15	-19	0	25000000
114	7	94	626	16	-19	0	25000000
115	7	96	626	18	-19	0	25000000
116	7	98	626	19	-19	0	25000000
117	7	100	626	22	-19	0	25000000
118	7	102	626	23	-19	0	25000000
119	7	104	626	24	-19	0	25000000
120	7	106	626	25	-19	0	25000000
121	7	108	626	26	-19	0	25000000
122	7	110	626	30	-19	0	25000000
123	7	112	626	32	-19	0	25000000
124	7	114	626	33	-19	0	25000000
125	7	116	626	34	-19	0	25000000
126	7	118	626	35	-19	0	25000000
127	7	120	626	36	-19	0	25000000
128	7	122	626	37	-19	0	25000000
129	7	124	626	38	-19	0	25000000
130	7	126	626	39	-19	0	25000000
131	50	0	3	50	-19	0	2000
132	50	1	3	100	-19	0	4000
133	50	2	3	250	-19	0	10000
134	50	3	3	500	-19	0	20000
135	50	8	4	50	-19	0	10000
136	50	9	4	100	-19	0	20000
137	50	10	4	250	-19	0	50000
138	50	11	4	500	-19	0	100000
139	50	16	5	50	-19	0	50000
140	50	17	5	100	-19	0	100000
141	50	18	5	250	-19	0	250000
142	50	19	5	500	-19	0	500000
143	50	24	1757	50	-19	0	70000
144	50	25	1757	100	-19	0	140000
145	50	26	1757	250	-19	0	350000
146	50	27	1757	500	-19	0	700000
147	50	32	6	50	-19	0	2000
148	50	33	6	100	-19	0	4000
149	50	34	6	250	-19	0	10000
150	50	35	6	500	-19	0	20000
151	50	40	7	50	-19	0	10000
152	50	41	7	100	-19	0	20000
153	50	42	7	250	-19	0	50000
154	50	43	7	500	-19	0	100000
155	50	48	8	50	-19	0	50000
156	50	49	8	100	-19	0	100000
157	50	50	8	250	-19	0	250000
158	50	51	8	500	-19	0	500000
159	50	56	1758	50	-19	0	70000
160	50	57	1758	100	-19	0	140000
161	50	58	1758	250	-19	0	350000
162	50	59	1758	500	-19	0	700000
163	50	64	12	50	-19	0	10000
164	50	65	12	100	-19	0	20000
165	50	66	12	250	-19	0	50000
166	50	67	12	500	-19	0	100000
